Normalized Data/p03_22_normalized_splitx10_0.vrp
NAME:p03_22_NORMALIZED_splitx10_
BEST_KNOWN: 0
COMMENT: 0
DIMENSION: 400
CAPACITY: 1000
EDGE_WEIGHT_FORMAT: FUNCTION
EDGE_WEIGHT_TYPE: EXACT_2D
NODE_COORD_SECTION
1 0.00000 0.00000
2 -24 -2
3 -24 -2
4 -24 -2
5 -24 -2
6 -24 -2
7 -24 -2
8 -50 -39
9 -50 -39
10 -50 -39
11 -50 -39
12 -35 38
13 -35 38
14 -35 38
15 -35 38
16 -35 38
17 -35 38
18 -34 -32
19 -34 -32
20 -34 -32
21 -34 -32
22 -34 -32
23 16 26
24 16 26
25 16 26
26 16 26
27 16 26
28 16 26
29 6 -5
30 6 -5
31 6 -5
32 15 -38
33 15 -38
34 15 -38
35 48 9
36 48 9
37 -31 48
38 -31 48
39 -5 -40
40 -5 -40
41 -5 -40
42 -5 -40
43 -5 -40
44 -5 6
45 -5 6
46 -5 6
47 -5 6
48 -17 -32
49 -17 -32
50 -17 -32
51 -17 -32
52 46 -40
53 46 -40
54 46 -40
55 46 -40
56 20 39
57 20 39
58 28 -50
59 28 -50
60 28 -50
61 28 -50
62 -1 21
63 -1 21
64 -1 21
65 14 13
66 14 13
67 14 13
68 -37 7
69 -37 7
70 -37 7
71 -37 7
72 -37 7
73 27 16
74 27 16
75 27 16
76 27 16
77 27 16
78 -35 4
79 -35 4
80 -35 4
81 -35 4
82 -35 4
83 -35 4
84 36 -29
85 36 -29
86 36 -29
87 36 -29
88 34 41
89 34 41
90 34 41
91 34 41
92 16 -4
93 16 -4
94 -39 20
95 -39 20
96 -39 20
97 -39 20
98 -39 20
99 -39 20
100 -39 20
101 18 20
102 18 20
103 18 20
104 18 20
105 11 44
106 11 44
107 11 44
108 11 44
109 11 44
110 44 -9
111 44 -9
112 44 -9
113 44 -9
114 44 -9
115 -4 34
116 -4 34
117 -4 34
118 -4 34
119 -47 11
120 -47 11
121 -47 11
122 -47 11
123 -47 11
124 -4 36
125 -4 36
126 -4 36
127 -4 36
128 -4 36
129 -4 36
130 -4 36
131 3 24
132 3 24
133 3 24
134 3 24
135 3 24
136 3 24
137 41 27
138 41 27
139 41 27
140 41 27
141 41 27
142 41 27
143 -4 29
144 -4 29
145 -4 29
146 -4 29
147 30 -39
148 30 -39
149 -48 50
150 -48 50
151 34 11
152 34 11
153 34 11
154 34 11
155 34 11
156 10 7
157 10 7
158 10 7
159 -14 -20
160 -14 -20
161 -14 -20
162 30 -15
163 30 -15
164 30 -15
165 45 12
166 45 12
167 45 12
168 45 12
169 45 12
170 44 43
171 44 43
172 44 43
173 44 43
174 44 43
175 4 -31
176 -31 -8
177 -31 -8
178 -31 -8
179 31 38
180 -13 -31
181 -13 -31
182 -13 -31
183 -13 -31
184 -13 -31
185 10 -46
186 10 -46
187 10 -46
188 10 -46
189 10 -46
190 -39 35
191 -39 35
192 -42 0
193 -42 0
194 45 36
195 45 36
196 45 36
197 45 36
198 11 -34
199 11 -34
200 -14 -5
201 -14 -5
202 -14 -5
203 -14 -5
204 -42 8
205 -42 8
206 -42 8
207 -42 8
208 -42 8
209 -42 8
210 35 26
211 35 26
212 35 26
213 -16 7
214 -16 7
215 -16 7
216 -16 7
217 -34 -43
218 -34 -43
219 -34 -43
220 -34 -43
221 -34 -43
222 -44 18
223 -44 18
224 -44 18
225 -44 18
226 -5 1
227 -5 1
228 -5 1
229 -5 1
230 -5 1
231 -5 1
232 -4 -26
233 -4 -26
234 -4 -26
235 33 -12
236 33 -12
237 33 -12
238 28 16
239 28 16
240 28 16
241 -50 24
242 -50 24
243 -50 24
244 32 -30
245 32 -30
246 32 -30
247 -23 -32
248 -23 -32
249 -23 -32
250 -50 33
251 -50 33
252 -50 33
253 31 -24
254 31 -24
255 10 -3
256 10 -3
257 10 -3
258 10 -3
259 -33 35
260 -33 35
261 -33 35
262 50 4
263 50 4
264 -25 6
265 -25 6
266 -25 6
267 -28 -12
268 -28 -12
269 -28 -12
270 32 -22
271 32 -22
272 32 -22
273 -22 43
274 -22 43
275 -22 43
276 -47 49
277 -47 49
278 -47 49
279 -47 49
280 -47 49
281 33 46
282 33 46
283 33 46
284 33 46
285 33 46
286 18 46
287 18 46
288 18 46
289 18 46
290 44 35
291 44 35
292 44 35
293 44 35
294 44 35
295 44 35
296 28 -47
297 -43 16
298 -43 16
299 -43 16
300 -43 16
301 -43 16
302 -43 16
303 -41 3
304 -41 3
305 -41 3
306 -41 3
307 -41 3
308 -41 3
309 -19 -16
310 -19 -16
311 -19 -16
312 -19 -16
313 -19 -16
314 -6 50
315 -6 50
316 -6 50
317 -26 43
318 -26 43
319 -26 43
320 -26 43
321 -26 43
322 6 29
323 6 29
324 6 29
325 6 29
326 6 29
327 6 29
328 22 -5
329 22 -5
330 22 -5
331 -22 -25
332 -22 -25
333 -22 -25
334 10 17
335 10 17
336 10 17
337 10 17
338 -6 -7
339 -6 -7
340 -6 -7
341 -6 -7
342 -6 -7
343 -6 -7
344 37 -8
345 37 -8
346 37 -8
347 37 -8
348 37 -8
349 37 -8
350 47 1
351 47 1
352 47 1
353 47 1
354 47 1
355 36 -4
356 36 -4
357 36 -4
358 36 -4
359 36 -4
360 36 -4
361 -31 -44
362 -31 -44
363 -31 -44
364 -31 -44
365 8 28
366 8 28
367 8 28
368 8 28
369 -7 11
370 -7 11
371 5 -25
372 5 -25
373 5 -25
374 -41 35
375 -41 35
376 -41 35
377 -41 35
378 -41 35
379 -41 35
380 36 29
381 36 29
382 36 29
383 36 29
384 18 -30
385 18 -30
386 28 -46
387 28 -46
388 28 -46
389 28 -46
390 13 -13
391 13 -13
392 13 -13
393 13 -13
394 13 -13
395 -49 21
396 -49 21
397 -49 21
398 -49 21
399 -49 21
400 -49 21
DEMAND_SECTION
1 0
2 200
3 200
4 50
5 10
6 10
7 10
8 200
9 100
10 10
11 10
12 200
13 100
14 10
15 10
16 10
17 10
18 200
19 200
20 10
21 10
22 10
23 200
24 200
25 10
26 10
27 10
28 10
29 200
30 200
31 10
32 200
33 10
34 10
35 200
36 10
37 200
38 10
39 200
40 100
41 50
42 10
43 10
44 200
45 100
46 50
47 10
48 100
49 50
50 10
51 10
52 100
53 50
54 10
55 10
56 200
57 50
58 100
59 10
60 10
61 10
62 200
63 100
64 50
65 200
66 100
67 50
68 200
69 200
70 10
71 10
72 10
73 200
74 50
75 10
76 10
77 10
78 200
79 50
80 10
81 10
82 10
83 10
84 200
85 50
86 10
87 10
88 200
89 10
90 10
91 10
92 200
93 50
94 200
95 200
96 50
97 10
98 10
99 10
100 10
101 200
102 200
103 10
104 10
105 200
106 200
107 50
108 10
109 10
110 200
111 100
112 50
113 10
114 10
115 200
116 100
117 10
118 10
119 200
120 50
121 10
122 10
123 10
124 200
125 100
126 50
127 10
128 10
129 10
130 10
131 200
132 50
133 10
134 10
135 10
136 10
137 100
138 50
139 10
140 10
141 10
142 10
143 100
144 50
145 10
146 10
147 200
148 50
149 200
150 100
151 200
152 50
153 10
154 10
155 10
156 200
157 200
158 100
159 200
160 200
161 10
162 100
163 50
164 10
165 100
166 10
167 10
168 10
169 10
170 100
171 50
172 10
173 10
174 10
175 200
176 200
177 100
178 10
179 200
180 200
181 200
182 50
183 10
184 10
185 200
186 200
187 50
188 10
189 10
190 200
191 50
192 200
193 200
194 100
195 10
196 10
197 10
198 200
199 200
200 200
201 100
202 50
203 10
204 100
205 50
206 10
207 10
208 10
209 10
210 200
211 50
212 10
213 200
214 200
215 50
216 10
217 200
218 200
219 50
220 10
221 10
222 100
223 50
224 10
225 10
226 200
227 100
228 50
229 10
230 10
231 10
232 100
233 10
234 10
235 100
236 50
237 10
238 200
239 200
240 100
241 200
242 50
243 10
244 200
245 200
246 100
247 100
248 50
249 10
250 100
251 10
252 10
253 100
254 50
255 200
256 200
257 10
258 10
259 200
260 100
261 10
262 200
263 50
264 100
265 50
266 10
267 200
268 10
269 10
270 200
271 50
272 10
273 200
274 100
275 50
276 200
277 200
278 50
279 10
280 10
281 200
282 200
283 10
284 10
285 10
286 200
287 200
288 10
289 10
290 100
291 50
292 10
293 10
294 10
295 10
296 200
297 200
298 100
299 50
300 10
301 10
302 10
303 200
304 100
305 50
306 10
307 10
308 10
309 200
310 100
311 50
312 10
313 10
314 200
315 100
316 10
317 200
318 10
319 10
320 10
321 10
322 200
323 50
324 10
325 10
326 10
327 10
328 200
329 200
330 10
331 200
332 50
333 10
334 200
335 200
336 10
337 10
338 200
339 100
340 10
341 10
342 10
343 10
344 200
345 100
346 10
347 10
348 10
349 10
350 200
351 200
352 10
353 10
354 10
355 200
356 200
357 50
358 10
359 10
360 10
361 200
362 10
363 10
364 10
365 100
366 10
367 10
368 10
369 200
370 50
371 200
372 50
373 10
374 200
375 100
376 50
377 10
378 10
379 10
380 200
381 50
382 10
383 10
384 200
385 10
386 200
387 10
388 10
389 10
390 200
391 10
392 10
393 10
394 10
395 200
396 200
397 50
398 10
399 10
400 10
DEPOT_SECTION
1
-1
EOF