Normalized Data/p03_22_normalized_splitx10_0.sol
399 -5 191 192 303 302 305 306 304 307 77 -6 3 2 4 1 176 177 175 267 268 266 -13 11 16 149 148 276 279 277 275 278 -24 25 27 26 23 22 100 101 65 66 -28 30 29 -42 38 41 39 40 49 48 47 180 181 183 182 179 -45 46 44 43 368 369 -50 360 362 361 363 216 217 220 219 218 332 331 330 -52 51 53 54 58 59 57 60 295 387 385 388 386 147 146 -55 56 282 283 280 281 284 87 88 90 89 -62 61 63 135 134 131 133 130 132 322 326 324 323 321 325 365 366 -64 72 74 73 76 75 237 239 238 -70 67 71 69 68 120 119 121 122 118 206 205 203 207 204 208 81 78 82 79 80 -98 96 95 396 394 399 395 398 397 241 242 240 251 250 249 375 376 377 -99 93 97 94 221 222 224 223 297 299 300 301 298 296 -103 102 178 169 171 172 173 170 194 195 193 196 291 292 294 289 293 290 381 382 380 379 -114 273 272 274 36 37 320 317 318 319 316 -117 116 115 124 129 127 123 128 126 125 314 315 313 145 143 144 142 -150 34 35 166 167 168 165 164 137 139 138 140 136 141 209 210 211 -154 153 152 151 262 261 349 353 350 352 351 357 354 -155 157 156 335 334 333 336 -200 201 202 199 264 265 263 212 215 214 213 -225 -226 227 229 228 230 -232 233 231 174 198 197 370 372 371 -245 243 244 85 86 83 84 252 253 -246 248 247 19 18 20 21 17 7 8 9 10 311 310 312 -255 256 254 257 92 91 389 390 392 393 391 -258 259 260 12 15 14 189 190 373 374 378 -271 269 270 163 161 162 235 234 236 328 329 327 -285 288 287 286 107 106 104 105 108 367 364 -309 308 158 159 160 337 341 340 339 342 -338 185 187 188 186 184 31 32 33 384 383 -347 346 345 348 343 344 111 113 109 110 112 358 355 359 356 0 





OBJ=
2912.906
BEST_KNOWN=
0.000